p cnf 210 1528
1 2 3 4 5 6 7 0
8 9 10 11 12 13 14 0
15 16 17 18 19 20 21 0
22 23 24 25 26 27 28 0
29 30 31 32 33 34 35 0
36 37 38 39 40 41 42 0
43 44 45 46 47 48 49 0
50 51 52 53 54 55 56 0
57 58 59 60 61 62 63 0
64 65 66 67 68 69 70 0
71 72 73 74 75 76 77 0
78 79 80 81 82 83 84 0
85 86 87 88 89 90 91 0
92 93 94 95 96 97 98 0
99 100 101 102 103 104 105 0
106 107 108 109 110 111 112 0
113 114 115 116 117 118 119 0
120 121 122 123 124 125 126 0
127 128 129 130 131 132 133 0
134 135 136 137 138 139 140 0
141 142 143 144 145 146 147 0
148 149 150 151 152 153 154 0
155 156 157 158 159 160 161 0
162 163 164 165 166 167 168 0
169 170 171 172 173 174 175 0
176 177 178 179 180 181 182 0
183 184 185 186 187 188 189 0
190 191 192 193 194 195 196 0
197 198 199 200 201 202 203 0
204 205 206 207 208 209 210 0
-1 -2 0
-1 -3 0
-1 -4 0
-1 -5 0
-1 -6 0
-1 -7 0
-2 -3 0
-2 -4 0
-2 -5 0
-2 -6 0
-2 -7 0
-3 -4 0
-3 -5 0
-3 -6 0
-3 -7 0
-4 -5 0
-4 -6 0
-4 -7 0
-5 -6 0
-5 -7 0
-6 -7 0
-8 -9 0
-8 -10 0
-8 -11 0
-8 -12 0
-8 -13 0
-8 -14 0
-9 -10 0
-9 -11 0
-9 -12 0
-9 -13 0
-9 -14 0
-10 -11 0
-10 -12 0
-10 -13 0
-10 -14 0
-11 -12 0
-11 -13 0
-11 -14 0
-12 -13 0
-12 -14 0
-13 -14 0
-15 -16 0
-15 -17 0
-15 -18 0
-15 -19 0
-15 -20 0
-15 -21 0
-16 -17 0
-16 -18 0
-16 -19 0
-16 -20 0
-16 -21 0
-17 -18 0
-17 -19 0
-17 -20 0
-17 -21 0
-18 -19 0
-18 -20 0
-18 -21 0
-19 -20 0
-19 -21 0
-20 -21 0
-22 -23 0
-22 -24 0
-22 -25 0
-22 -26 0
-22 -27 0
-22 -28 0
-23 -24 0
-23 -25 0
-23 -26 0
-23 -27 0
-23 -28 0
-24 -25 0
-24 -26 0
-24 -27 0
-24 -28 0
-25 -26 0
-25 -27 0
-25 -28 0
-26 -27 0
-26 -28 0
-27 -28 0
-29 -30 0
-29 -31 0
-29 -32 0
-29 -33 0
-29 -34 0
-29 -35 0
-30 -31 0
-30 -32 0
-30 -33 0
-30 -34 0
-30 -35 0
-31 -32 0
-31 -33 0
-31 -34 0
-31 -35 0
-32 -33 0
-32 -34 0
-32 -35 0
-33 -34 0
-33 -35 0
-34 -35 0
-36 -37 0
-36 -38 0
-36 -39 0
-36 -40 0
-36 -41 0
-36 -42 0
-37 -38 0
-37 -39 0
-37 -40 0
-37 -41 0
-37 -42 0
-38 -39 0
-38 -40 0
-38 -41 0
-38 -42 0
-39 -40 0
-39 -41 0
-39 -42 0
-40 -41 0
-40 -42 0
-41 -42 0
-43 -44 0
-43 -45 0
-43 -46 0
-43 -47 0
-43 -48 0
-43 -49 0
-44 -45 0
-44 -46 0
-44 -47 0
-44 -48 0
-44 -49 0
-45 -46 0
-45 -47 0
-45 -48 0
-45 -49 0
-46 -47 0
-46 -48 0
-46 -49 0
-47 -48 0
-47 -49 0
-48 -49 0
-50 -51 0
-50 -52 0
-50 -53 0
-50 -54 0
-50 -55 0
-50 -56 0
-51 -52 0
-51 -53 0
-51 -54 0
-51 -55 0
-51 -56 0
-52 -53 0
-52 -54 0
-52 -55 0
-52 -56 0
-53 -54 0
-53 -55 0
-53 -56 0
-54 -55 0
-54 -56 0
-55 -56 0
-57 -58 0
-57 -59 0
-57 -60 0
-57 -61 0
-57 -62 0
-57 -63 0
-58 -59 0
-58 -60 0
-58 -61 0
-58 -62 0
-58 -63 0
-59 -60 0
-59 -61 0
-59 -62 0
-59 -63 0
-60 -61 0
-60 -62 0
-60 -63 0
-61 -62 0
-61 -63 0
-62 -63 0
-64 -65 0
-64 -66 0
-64 -67 0
-64 -68 0
-64 -69 0
-64 -70 0
-65 -66 0
-65 -67 0
-65 -68 0
-65 -69 0
-65 -70 0
-66 -67 0
-66 -68 0
-66 -69 0
-66 -70 0
-67 -68 0
-67 -69 0
-67 -70 0
-68 -69 0
-68 -70 0
-69 -70 0
-71 -72 0
-71 -73 0
-71 -74 0
-71 -75 0
-71 -76 0
-71 -77 0
-72 -73 0
-72 -74 0
-72 -75 0
-72 -76 0
-72 -77 0
-73 -74 0
-73 -75 0
-73 -76 0
-73 -77 0
-74 -75 0
-74 -76 0
-74 -77 0
-75 -76 0
-75 -77 0
-76 -77 0
-78 -79 0
-78 -80 0
-78 -81 0
-78 -82 0
-78 -83 0
-78 -84 0
-79 -80 0
-79 -81 0
-79 -82 0
-79 -83 0
-79 -84 0
-80 -81 0
-80 -82 0
-80 -83 0
-80 -84 0
-81 -82 0
-81 -83 0
-81 -84 0
-82 -83 0
-82 -84 0
-83 -84 0
-85 -86 0
-85 -87 0
-85 -88 0
-85 -89 0
-85 -90 0
-85 -91 0
-86 -87 0
-86 -88 0
-86 -89 0
-86 -90 0
-86 -91 0
-87 -88 0
-87 -89 0
-87 -90 0
-87 -91 0
-88 -89 0
-88 -90 0
-88 -91 0
-89 -90 0
-89 -91 0
-90 -91 0
-92 -93 0
-92 -94 0
-92 -95 0
-92 -96 0
-92 -97 0
-92 -98 0
-93 -94 0
-93 -95 0
-93 -96 0
-93 -97 0
-93 -98 0
-94 -95 0
-94 -96 0
-94 -97 0
-94 -98 0
-95 -96 0
-95 -97 0
-95 -98 0
-96 -97 0
-96 -98 0
-97 -98 0
-99 -100 0
-99 -101 0
-99 -102 0
-99 -103 0
-99 -104 0
-99 -105 0
-100 -101 0
-100 -102 0
-100 -103 0
-100 -104 0
-100 -105 0
-101 -102 0
-101 -103 0
-101 -104 0
-101 -105 0
-102 -103 0
-102 -104 0
-102 -105 0
-103 -104 0
-103 -105 0
-104 -105 0
-106 -107 0
-106 -108 0
-106 -109 0
-106 -110 0
-106 -111 0
-106 -112 0
-107 -108 0
-107 -109 0
-107 -110 0
-107 -111 0
-107 -112 0
-108 -109 0
-108 -110 0
-108 -111 0
-108 -112 0
-109 -110 0
-109 -111 0
-109 -112 0
-110 -111 0
-110 -112 0
-111 -112 0
-113 -114 0
-113 -115 0
-113 -116 0
-113 -117 0
-113 -118 0
-113 -119 0
-114 -115 0
-114 -116 0
-114 -117 0
-114 -118 0
-114 -119 0
-115 -116 0
-115 -117 0
-115 -118 0
-115 -119 0
-116 -117 0
-116 -118 0
-116 -119 0
-117 -118 0
-117 -119 0
-118 -119 0
-120 -121 0
-120 -122 0
-120 -123 0
-120 -124 0
-120 -125 0
-120 -126 0
-121 -122 0
-121 -123 0
-121 -124 0
-121 -125 0
-121 -126 0
-122 -123 0
-122 -124 0
-122 -125 0
-122 -126 0
-123 -124 0
-123 -125 0
-123 -126 0
-124 -125 0
-124 -126 0
-125 -126 0
-127 -128 0
-127 -129 0
-127 -130 0
-127 -131 0
-127 -132 0
-127 -133 0
-128 -129 0
-128 -130 0
-128 -131 0
-128 -132 0
-128 -133 0
-129 -130 0
-129 -131 0
-129 -132 0
-129 -133 0
-130 -131 0
-130 -132 0
-130 -133 0
-131 -132 0
-131 -133 0
-132 -133 0
-134 -135 0
-134 -136 0
-134 -137 0
-134 -138 0
-134 -139 0
-134 -140 0
-135 -136 0
-135 -137 0
-135 -138 0
-135 -139 0
-135 -140 0
-136 -137 0
-136 -138 0
-136 -139 0
-136 -140 0
-137 -138 0
-137 -139 0
-137 -140 0
-138 -139 0
-138 -140 0
-139 -140 0
-141 -142 0
-141 -143 0
-141 -144 0
-141 -145 0
-141 -146 0
-141 -147 0
-142 -143 0
-142 -144 0
-142 -145 0
-142 -146 0
-142 -147 0
-143 -144 0
-143 -145 0
-143 -146 0
-143 -147 0
-144 -145 0
-144 -146 0
-144 -147 0
-145 -146 0
-145 -147 0
-146 -147 0
-148 -149 0
-148 -150 0
-148 -151 0
-148 -152 0
-148 -153 0
-148 -154 0
-149 -150 0
-149 -151 0
-149 -152 0
-149 -153 0
-149 -154 0
-150 -151 0
-150 -152 0
-150 -153 0
-150 -154 0
-151 -152 0
-151 -153 0
-151 -154 0
-152 -153 0
-152 -154 0
-153 -154 0
-155 -156 0
-155 -157 0
-155 -158 0
-155 -159 0
-155 -160 0
-155 -161 0
-156 -157 0
-156 -158 0
-156 -159 0
-156 -160 0
-156 -161 0
-157 -158 0
-157 -159 0
-157 -160 0
-157 -161 0
-158 -159 0
-158 -160 0
-158 -161 0
-159 -160 0
-159 -161 0
-160 -161 0
-162 -163 0
-162 -164 0
-162 -165 0
-162 -166 0
-162 -167 0
-162 -168 0
-163 -164 0
-163 -165 0
-163 -166 0
-163 -167 0
-163 -168 0
-164 -165 0
-164 -166 0
-164 -167 0
-164 -168 0
-165 -166 0
-165 -167 0
-165 -168 0
-166 -167 0
-166 -168 0
-167 -168 0
-169 -170 0
-169 -171 0
-169 -172 0
-169 -173 0
-169 -174 0
-169 -175 0
-170 -171 0
-170 -172 0
-170 -173 0
-170 -174 0
-170 -175 0
-171 -172 0
-171 -173 0
-171 -174 0
-171 -175 0
-172 -173 0
-172 -174 0
-172 -175 0
-173 -174 0
-173 -175 0
-174 -175 0
-176 -177 0
-176 -178 0
-176 -179 0
-176 -180 0
-176 -181 0
-176 -182 0
-177 -178 0
-177 -179 0
-177 -180 0
-177 -181 0
-177 -182 0
-178 -179 0
-178 -180 0
-178 -181 0
-178 -182 0
-179 -180 0
-179 -181 0
-179 -182 0
-180 -181 0
-180 -182 0
-181 -182 0
-183 -184 0
-183 -185 0
-183 -186 0
-183 -187 0
-183 -188 0
-183 -189 0
-184 -185 0
-184 -186 0
-184 -187 0
-184 -188 0
-184 -189 0
-185 -186 0
-185 -187 0
-185 -188 0
-185 -189 0
-186 -187 0
-186 -188 0
-186 -189 0
-187 -188 0
-187 -189 0
-188 -189 0
-190 -191 0
-190 -192 0
-190 -193 0
-190 -194 0
-190 -195 0
-190 -196 0
-191 -192 0
-191 -193 0
-191 -194 0
-191 -195 0
-191 -196 0
-192 -193 0
-192 -194 0
-192 -195 0
-192 -196 0
-193 -194 0
-193 -195 0
-193 -196 0
-194 -195 0
-194 -196 0
-195 -196 0
-197 -198 0
-197 -199 0
-197 -200 0
-197 -201 0
-197 -202 0
-197 -203 0
-198 -199 0
-198 -200 0
-198 -201 0
-198 -202 0
-198 -203 0
-199 -200 0
-199 -201 0
-199 -202 0
-199 -203 0
-200 -201 0
-200 -202 0
-200 -203 0
-201 -202 0
-201 -203 0
-202 -203 0
-204 -205 0
-204 -206 0
-204 -207 0
-204 -208 0
-204 -209 0
-204 -210 0
-205 -206 0
-205 -207 0
-205 -208 0
-205 -209 0
-205 -210 0
-206 -207 0
-206 -208 0
-206 -209 0
-206 -210 0
-207 -208 0
-207 -209 0
-207 -210 0
-208 -209 0
-208 -210 0
-209 -210 0
-1 -16 0
-5 -20 0
-5 -19 0
-6 -21 0
-6 -31 0
-7 -34 0
-5 -34 0
-1 -29 0
-6 -62 0
-4 -58 0
-4 -62 0
-7 -57 0
-2 -76 0
-5 -74 0
-6 -72 0
-6 -77 0
-6 -125 0
-7 -124 0
-7 -125 0
-1 -125 0
-1 -130 0
-1 -131 0
-3 -133 0
-7 -133 0
-3 -154 0
-1 -150 0
-4 -150 0
-7 -151 0
-5 -158 0
-2 -155 0
-7 -161 0
-3 -157 0
-7 -166 0
-4 -167 0
-5 -164 0
-4 -168 0
-1 -177 0
-4 -181 0
-2 -176 0
-3 -176 0
-7 -186 0
-6 -188 0
-5 -186 0
-2 -187 0
-1 -202 0
-6 -197 0
-7 -200 0
-4 -197 0
-2 -204 0
-5 -206 0
-7 -205 0
-5 -209 0
-11 -18 0
-14 -21 0
-14 -15 0
-12 -16 0
-12 -35 0
-9 -35 0
-10 -29 0
-13 -31 0
-11 -36 0
-10 -37 0
-14 -37 0
-13 -42 0
-14 -49 0
-8 -45 0
-14 -47 0
-9 -43 0
-9 -61 0
-9 -57 0
-14 -63 0
-12 -62 0
-9 -74 0
-14 -73 0
-11 -73 0
-14 -76 0
-9 -109 0
-8 -108 0
-11 -109 0
-13 -112 0
-10 -144 0
-10 -147 0
-13 -144 0
-11 -146 0
-9 -157 0
-8 -161 0
-14 -160 0
-11 -161 0
-13 -178 0
-10 -177 0
-8 -177 0
-11 -182 0
-12 -184 0
-10 -189 0
-12 -186 0
-9 -189 0
-14 -200 0
-14 -202 0
-10 -203 0
-8 -203 0
-18 -44 0
-15 -48 0
-21 -45 0
-21 -48 0
-15 -62 0
-19 -57 0
-15 -60 0
-18 -58 0
-17 -68 0
-19 -65 0
-18 -64 0
-20 -65 0
-15 -79 0
-18 -83 0
-21 -80 0
-18 -80 0
-20 -112 0
-20 -106 0
-17 -108 0
-21 -111 0
-21 -115 0
-15 -116 0
-17 -119 0
-21 -116 0
-17 -131 0
-16 -127 0
-19 -128 0
-18 -130 0
-18 -138 0
-15 -134 0
-20 -140 0
-17 -135 0
-16 -173 0
-16 -169 0
-17 -170 0
-18 -170 0
-17 -187 0
-17 -189 0
-18 -189 0
-15 -189 0
-15 -202 0
-17 -200 0
-19 -203 0
-16 -199 0
-16 -209 0
-21 -210 0
-21 -208 0
-18 -205 0
-23 -39 0
-24 -39 0
-28 -38 0
-22 -39 0
-23 -47 0
-25 -44 0
-24 -45 0
-23 -48 0
-26 -55 0
-22 -56 0
-24 -50 0
-28 -53 0
-25 -62 0
-23 -59 0
-26 -59 0
-22 -61 0
-27 -74 0
-22 -77 0
-26 -72 0
-22 -71 0
-28 -82 0
-24 -79 0
-22 -79 0
-23 -83 0
-25 -94 0
-25 -97 0
-24 -92 0
-26 -96 0
-22 -99 0
-28 -103 0
-26 -104 0
-24 -99 0
-28 -117 0
-25 -116 0
-23 -116 0
-22 -117 0
-24 -132 0
-26 -133 0
-28 -133 0
-28 -130 0
-25 -134 0
-23 -136 0
-22 -139 0
-22 -140 0
-26 -142 0
-22 -142 0
-25 -144 0
-26 -145 0
-25 -152 0
-24 -148 0
-23 -149 0
-25 -153 0
-23 -182 0
-28 -181 0
-23 -179 0
-27 -181 0
-26 -194 0
-27 -193 0
-23 -192 0
-22 -190 0
-29 -39 0
-33 -37 0
-33 -42 0
-34 -36 0
-31 -54 0
-30 -55 0
-35 -52 0
-32 -55 0
-32 -88 0
-33 -90 0
-32 -86 0
-30 -91 0
-30 -99 0
-33 -103 0
-30 -105 0
-30 -100 0
-34 -107 0
-34 -111 0
-33 -106 0
-32 -111 0
-35 -117 0
-35 -119 0
-29 -116 0
-31 -117 0
-35 -131 0
-31 -133 0
-32 -129 0
-30 -128 0
-32 -143 0
-33 -142 0
-29 -145 0
-33 -144 0
-29 -160 0
-29 -155 0
-34 -157 0
-31 -161 0
-33 -182 0
-30 -177 0
-35 -178 0
-29 -179 0
-42 -48 0
-41 -44 0
-42 -47 0
-39 -48 0
-42 -51 0
-38 -54 0
-39 -56 0
-41 -50 0
-39 -59 0
-39 -62 0
-42 -57 0
-41 -60 0
-37 -88 0
-38 -89 0
-42 -90 0
-38 -91 0
-40 -109 0
-36 -106 0
-39 -107 0
-40 -110 0
-39 -122 0
-37 -126 0
-37 -124 0
-36 -120 0
-40 -134 0
-42 -140 0
-42 -139 0
-36 -135 0
-37 -156 0
-42 -161 0
-42 -159 0
-36 -158 0
-40 -179 0
-37 -179 0
-39 -179 0
-39 -180 0
-38 -184 0
-36 -186 0
-39 -187 0
-37 -189 0
-44 -52 0
-49 -52 0
-47 -50 0
-47 -55 0
-49 -74 0
-47 -77 0
-46 -71 0
-46 -76 0
-46 -78 0
-48 -83 0
-48 -81 0
-48 -84 0
-46 -95 0
-44 -98 0
-45 -95 0
-45 -98 0
-43 -104 0
-46 -105 0
-48 -100 0
-48 -99 0
-43 -112 0
-48 -112 0
-49 -110 0
-43 -108 0
-47 -117 0
-45 -116 0
-45 -119 0
-46 -116 0
-49 -128 0
-46 -127 0
-47 -133 0
-45 -130 0
-43 -206 0
-47 -207 0
-48 -206 0
-48 -207 0
-50 -62 0
-52 -57 0
-52 -58 0
-50 -63 0
-55 -92 0
-52 -95 0
-51 -95 0
-55 -95 0
-56 -105 0
-53 -101 0
-51 -101 0
-51 -99 0
-52 -124 0
-54 -122 0
-51 -123 0
-52 -122 0
-56 -146 0
-50 -142 0
-53 -146 0
-55 -142 0
-50 -152 0
-52 -151 0
-55 -149 0
-56 -152 0
-53 -163 0
-53 -164 0
-50 -162 0
-55 -167 0
-56 -175 0
-51 -173 0
-50 -170 0
-50 -174 0
-54 -181 0
-50 -178 0
-52 -179 0
-53 -181 0
-54 -193 0
-50 -193 0
-56 -192 0
-52 -191 0
-63 -79 0
-61 -82 0
-57 -84 0
-60 -83 0
-60 -86 0
-58 -86 0
-63 -87 0
-60 -89 0
-60 -103 0
-57 -102 0
-61 -104 0
-58 -105 0
-61 -110 0
-59 -109 0
-61 -107 0
-63 -108 0
-57 -131 0
-60 -128 0
-61 -130 0
-62 -131 0
-62 -150 0
-63 -150 0
-61 -149 0
-58 -151 0
-57 -168 0
-59 -165 0
-62 -166 0
-59 -168 0
-62 -169 0
-60 -173 0
-58 -174 0
-62 -170 0
-58 -188 0
-63 -183 0
-60 -185 0
-63 -188 0
-63 -204 0
-62 -204 0
-60 -206 0
-57 -210 0
-65 -79 0
-67 -80 0
-64 -81 0
-65 -83 0
-64 -85 0
-64 -91 0
-69 -91 0
-66 -88 0
-67 -97 0
-66 -94 0
-66 -96 0
-64 -96 0
-69 -104 0
-68 -99 0
-66 -103 0
-66 -104 0
-64 -114 0
-68 -114 0
-68 -119 0
-69 -119 0
-67 -159 0
-65 -159 0
-69 -156 0
-66 -158 0
-67 -162 0
-66 -162 0
-67 -164 0
-68 -164 0
-68 -169 0
-64 -172 0
-69 -175 0
-69 -172 0
-69 -186 0
-67 -186 0
-68 -183 0
-68 -186 0
-64 -208 0
-70 -209 0
-66 -208 0
-64 -210 0
-73 -81 0
-77 -81 0
-74 -83 0
-74 -84 0
-71 -97 0
-73 -94 0
-77 -93 0
-73 -95 0
-73 -137 0
-73 -138 0
-73 -136 0
-75 -137 0
-74 -143 0
-77 -142 0
-75 -141 0
-73 -143 0
-73 -155 0
-76 -161 0
-72 -156 0
-73 -160 0
-73 -167 0
-75 -168 0
-75 -163 0
-73 -163 0
-75 -174 0
-71 -174 0
-76 -175 0
-77 -172 0
-73 -193 0
-71 -195 0
-73 -191 0
-74 -196 0
-84 -98 0
-79 -98 0
-79 -94 0
-82 -98 0
-81 -103 0
-79 -103 0
-79 -104 0
-79 -100 0
-81 -111 0
-84 -109 0
-83 -110 0
-81 -106 0
-84 -118 0
-78 -115 0
-80 -113 0
-83 -115 0
-80 -124 0
-83 -125 0
-84 -121 0
-84 -122 0
-81 -127 0
-79 -133 0
-84 -128 0
-80 -129 0
-83 -136 0
-81 -138 0
-81 -139 0
-82 -140 0
-78 -141 0
-78 -144 0
-83 -143 0
-84 -143 0
-79 -150 0
-78 -154 0
-78 -148 0
-80 -151 0
-84 -156 0
-81 -161 0
-80 -157 0
-83 -155 0
-81 -179 0
-84 -178 0
-81 -176 0
-79 -180 0
-83 -187 0
-79 -184 0
-79 -187 0
-81 -188 0
-78 -190 0
-79 -193 0
-84 -192 0
-82 -192 0
-86 -96 0
-89 -94 0
-90 -93 0
-91 -93 0
-91 -127 0
-87 -131 0
-85 -129 0
-90 -127 0
-90 -140 0
-91 -140 0
-91 -139 0
-87 -135 0
-89 -151 0
-89 -154 0
-88 -153 0
-87 -151 0
-85 -160 0
-86 -157 0
-90 -157 0
-87 -158 0
-87 -170 0
-91 -171 0
-86 -170 0
-91 -175 0
-85 -181 0
-87 -179 0
-85 -177 0
-86 -179 0
-87 -184 0
-86 -188 0
-85 -187 0
-90 -185 0
-85 -210 0
-90 -205 0
-88 -204 0
-86 -204 0
-93 -102 0
-93 -105 0
-94 -104 0
-96 -100 0
-97 -112 0
-92 -108 0
-97 -107 0
-96 -107 0
-98 -138 0
-96 -135 0
-95 -140 0
-93 -137 0
-93 -149 0
-94 -152 0
-94 -151 0
-95 -154 0
-96 -166 0
-92 -164 0
-93 -165 0
-93 -162 0
-98 -172 0
-97 -169 0
-97 -173 0
-92 -169 0
-97 -185 0
-96 -185 0
-97 -186 0
-94 -184 0
-92 -191 0
-97 -195 0
-95 -190 0
-96 -196 0
-101 -110 0
-105 -112 0
-99 -111 0
-104 -111 0
-104 -123 0
-102 -120 0
-101 -123 0
-101 -122 0
-104 -166 0
-99 -167 0
-103 -167 0
-100 -165 0
-101 -173 0
-102 -175 0
-104 -169 0
-104 -175 0
-105 -186 0
-100 -188 0
-104 -187 0
-103 -188 0
-100 -197 0
-101 -201 0
-105 -202 0
-100 -201 0
-103 -210 0
-101 -207 0
-100 -206 0
-99 -205 0
-107 -126 0
-108 -123 0
-110 -124 0
-106 -125 0
-112 -130 0
-108 -130 0
-108 -128 0
-107 -128 0
-109 -138 0
-112 -135 0
-107 -138 0
-110 -140 0
-108 -142 0
-111 -141 0
-108 -146 0
-106 -147 0
-106 -152 0
-112 -152 0
-106 -150 0
-110 -151 0
-106 -157 0
-109 -155 0
-110 -156 0
-112 -156 0
-112 -168 0
-108 -165 0
-111 -163 0
-108 -168 0
-110 -179 0
-106 -176 0
-110 -182 0
-109 -182 0
-111 -190 0
-106 -196 0
-109 -190 0
-107 -191 0
-113 -130 0
-116 -130 0
-115 -131 0
-117 -132 0
-114 -152 0
-118 -150 0
-118 -154 0
-118 -148 0
-114 -161 0
-118 -155 0
-117 -157 0
-118 -159 0
-115 -167 0
-118 -165 0
-116 -166 0
-114 -166 0
-117 -169 0
-113 -174 0
-115 -173 0
-118 -175 0
-116 -180 0
-119 -182 0
-116 -176 0
-118 -182 0
-117 -193 0
-117 -194 0
-114 -190 0
-114 -193 0
-116 -199 0
-113 -197 0
-117 -200 0
-115 -201 0
-117 -204 0
-117 -207 0
-118 -207 0
-118 -205 0
-125 -162 0
-121 -163 0
-125 -167 0
-126 -163 0
-122 -169 0
-126 -172 0
-125 -172 0
-123 -170 0
-126 -190 0
-121 -196 0
-125 -193 0
-124 -192 0
-125 -201 0
-126 -200 0
-125 -197 0
-122 -199 0
-120 -204 0
-123 -206 0
-124 -209 0
-122 -204 0
-130 -191 0
-131 -192 0
-129 -196 0
-132 -193 0
-129 -203 0
-133 -200 0
-127 -200 0
-127 -197 0
-131 -204 0
-130 -210 0
-130 -209 0
-128 -204 0
-137 -145 0
-136 -141 0
-136 -143 0
-134 -147 0
-135 -156 0
-134 -158 0
-139 -157 0
-139 -156 0
-134 -168 0
-140 -166 0
-136 -164 0
-139 -166 0
-134 -173 0
-135 -173 0
-138 -169 0
-135 -170 0
-138 -178 0
-137 -181 0
-136 -182 0
-139 -179 0
-134 -186 0
-134 -183 0
-135 -188 0
-139 -185 0
-140 -199 0
-134 -200 0
-137 -200 0
-135 -203 0
-135 -210 0
-136 -207 0
-139 -208 0
-138 -208 0
-146 -154 0
-141 -154 0
-141 -153 0
-147 -152 0
-147 -167 0
-142 -166 0
-143 -164 0
-146 -165 0
-141 -187 0
-146 -187 0
-144 -184 0
-146 -184 0
-151 -155 0
-154 -157 0
-148 -156 0
-149 -160 0
-150 -163 0
-153 -165 0
-154 -164 0
-152 -168 0
-149 -169 0
-149 -173 0
-151 -173 0
-154 -171 0
-148 -187 0
-154 -187 0
-151 -188 0
-149 -187 0
-150 -193 0
-150 -191 0
-153 -196 0
-153 -195 0
-149 -197 0
-151 -201 0
-153 -199 0
-148 -199 0
-154 -205 0
-148 -209 0
-149 -206 0
-151 -210 0
-160 -170 0
-158 -170 0
-159 -170 0
-161 -171 0
-159 -180 0
-161 -177 0
-157 -177 0
-156 -178 0
-160 -188 0
-161 -186 0
-155 -189 0
-159 -184 0
-159 -195 0
-159 -196 0
-160 -195 0
-159 -193 0
-157 -200 0
-155 -199 0
-156 -200 0
-161 -197 0
-167 -171 0
-163 -169 0
-163 -175 0
-163 -172 0
-165 -176 0
-162 -180 0
-165 -177 0
-165 -180 0
-162 -197 0
-162 -199 0
-164 -197 0
-165 -197 0
-162 -208 0
-162 -207 0
-165 -204 0
-168 -204 0
-174 -182 0
-169 -178 0
-175 -181 0
-173 -182 0
-174 -183 0
-169 -183 0
-175 -186 0
-171 -189 0
-172 -200 0
-169 -203 0
-175 -201 0
-174 -203 0
-170 -208 0
-174 -204 0
-175 -209 0
-175 -208 0
-179 -201 0
-182 -198 0
-178 -200 0
-176 -203 0
-184 -195 0
-186 -192 0
-184 -191 0
-184 -193 0
-187 -199 0
-188 -202 0
-184 -197 0
-189 -201 0
-183 -210 0
-188 -205 0
-184 -206 0
-189 -205 0
